351
312
261
395
354
251
257
243
285
305
229
351
361
257
305
367
350
234
282
397
277
342
330
261
278
350
234
267
310
348
300
264
330
283
251
323
291
272
286
230
317
317
261
337
324
305
317
310
310
335
294
253
340
316
263
262
219
280
317
306
356
229
257
307
309
284
239
352
320
348
268
285
213
304
302
287
315
306
269
246
292
237
381
288
252
226
389
300
318
331
371
296
347
342
245
250
361
308
298
283
